20180531 253900.00 172700.00
20171027 253872.07 155118.17
20170929 253872.07 154055.05
20161231 197112.99 154054.45
20160630 197112.99 154054.45
20160505 197112.99 154054.45
20150630 73004.81 51688.88
